&input
 fildyn='graphene.dyn',
 zasr='simple',
 flfrc='graphene.fc',
/

