&input
 fildyn='graphene.dyn',
 zasr='crystal',
 flfrc='graphene.fc',
/

